 $CONTRL RUNTYP=HESSIAN COORD=ZMT UNITS=ANGS $END
 $BASIS  GBASIS=N31 NGAUSS=6 NDFUNC=1 $END
 $DATA
6-31g(d)/ Water normal modes
CnV 2

O   
H  1   0.9473206
H  1   0.9473206  2   105.4977920
 $END

