 $CONTRL SCFTYP=RHF RUNTYP=ENERGY COORD=CART UNITS=ANGS $END
 $SYSTEM TIMLIM=600000 MEMORY=25000000 $END
 $STATPT NSTEP=1000 $END
 $BASIS  GBASIS=AM1 $END
 $GUESS  GUESS=HUCKEL $END
 $DATA
Title
C1
CL         17.0   0.7229973544   0.0000004230   0.0000096945
C           6.0  -1.0182896892  -0.0000019156   0.0000076558
H           1.0  -1.3667173990  -0.0032967331   1.0555162386
H           1.0  -1.3667179223  -0.9124434844  -0.5306195875
H           1.0  -1.3667202586   0.9157318285  -0.5249156287
 $END

