 $CONTRL SCFTYP=RHF RUNTYP=ENERGY MAXIT=30 ICHARG=-1 MULT=1 COORD=CART $END
 $SYSTEM TIMLIM=525600 MEMORY=1000000 $END
 $BASIS GBASIS=AM1 $END
 $SCF DIRSCF=.TRUE. $END
 $DATA 
Title
C1
Cl    17.0    -0.04337    -0.07996     0.00000
 $END
