 $CONTRL SCFTYP=RHF RUNTYP=ENERGY MAXIT=30 ICHARG=-1 MULT=1 COORD=CART $END
 $SYSTEM TIMLIM=525600 MEMORY=1000000 $END
 $BASIS GBASIS=AM1 $END
 $SCF DIRSCF=.TRUE. $END
 $DATA 
Title
C1
I    53.0    -0.15179    -0.26428     0.00000
 $END
