 $CONTRL SCFTYP=RHF RUNTYP=ENERGY COORD=CART UNITS=ANGS $END
 $SYSTEM TIMLIM=600000 MEMORY=25000000 $END
 $STATPT NSTEP=1000 $END
 $BASIS  GBASIS=AM1 $END
 $GUESS  GUESS=HUCKEL $END
 $DATA
Title
C1
I          53.0   0.4980151199  -0.0013912990  -0.0281343321
C           6.0  -1.5519824327   0.0002871294   0.0053652480
H           1.0  -1.9177712272   1.0358928385  -0.1461160602
H           1.0  -1.8998697411  -0.3807282213   0.9867238363
H           1.0  -1.9298090558  -0.6535281323  -0.8064198072
 $END

