!   File created by MacMolPlt 7.4.2
 $CONTRL SCFTYP=RHF RUNTYP=SADPOINT MAXIT=30 ICHARG=-1 MULT=1 
    COORD=ZMT $END
 $SYSTEM TIMLIM=525600 MEMORY=1000000 $END
 $BASIS GBASIS=AM1 $END
 $SCF DIRSCF=.TRUE. $END
 $GUESS GUESS=HUCKEL $END
 $STATPT OPTTOL=0.0001 NSTEP=20 HESS=CALC $END
! A $HESS group must be manually added to this file!
 $HESS HESS=READ $END
 $DATA 
Title
C1
CL
C        1   2.0924838
H        2   1.0984837    1    96.4848064
H        2   1.0914198    3   117.6331765    1  -100.5036440    0
H        2   1.1038517    3   120.4902123    4  -161.4978174    0
I        2   2.4621277    1   176.6353279    4   153.7361733    0
 $END
