 $CONTRL SCFTYP=RHF RUNTYP=RSURFACE NZVAR=18 COORD=ZMT $END
 $BASIS GBASIS=N31 NGAUSS=6 NDFUNC=1 $END
 $ZMAT DLC=1 AUTO=1 IFZMAT(1)=3,7,4,1,8 SCAN=.T. DLCTOL=1D-7 ORTTOL=1D-7 $END
 $ZMAT IFDMOD=2 $END
 $SURF ORIG1=-180 DISP1=3 NDISP1=121 REUSE=.T. $END
 $DATA 
Title
C1
 C
 H      1   1.0908059
 H      1   1.0907935  2   109.5565975
 C      1   1.5179288  2   111.6326439  3  -124.1803803  0
 H      4   1.0908012  1   111.6362648  2   -56.9968163  0
 H      4   1.0908019  5   109.5526452  1   124.1787688  0
 Cl     4   1.8154040  1   109.2025784  5   118.4998698  0
 Cl     1   1.8154058  2   107.3102933  3   116.2014990  0
 $END
