 $CONTRL RUNTYP=HESSIAN COORD=ZMT UNITS=ANGS $END
 $BASIS  GBASIS=N31 NGAUSS=6 NDFUNC=1 $END
 $DATA
6-31g(d)/Formaldehyde normal modes
Cnv 2

O
C 1 1.1843478
H 2 1.0916236 1 122.1591283
H 2 1.0916236 1 122.1591283 3 180.0000000
 $END
