 $CONTRL RUNTYP=ENERGY COORD=UNIQUE UNITS=ANGS $END
 $BASIS  GBASIS=N21 NGAUSS=3 NDFUNC=1 $END
 $DATA
3-21g(d) / Chloromethane single point energy
C1
CL         17.0   0.2927797166   0.0263834706  -0.7024208392
C           6.0  -0.4016025404  -0.0362405867   0.9635781389
H           1.0   0.2694889229  -0.6043184281   1.5842610674
H           1.0  -1.3651436035  -0.5123095194   0.9063981462
H           1.0  -0.4946724957   0.9732150635   1.3250634869
 $END
