 $CONTRL RUNTYP=ENERGY COORD=UNIQUE UNITS=ANGS $END
 $BASIS  GBASIS=STO NGAUSS=6 $END
 $DATA
STO-6G/ Chloromethane single point energy
C1
CL         17.0   0.2917753524   0.0262784214  -0.6999723012
C           6.0  -0.3939513797  -0.0355127399   0.9452291198
H           1.0   0.2667903728  -0.6042233064   1.5893459944
H           1.0  -1.3668385859  -0.5122483518   0.9119372023
H           1.0  -0.4969257596   0.9724359766   1.3303399848
 $END
