 $CONTRL RUNTYP=ENERGY ICHARG=-1 COORD=UNIQUE $END
 $BASIS GBASIS=STO NGAUSS=6 $END
 $DATA 
STO-6G/ Iodine single point energy
C1
I    53.0    -0.15179    -0.26428     0.00000
 $END
