 $CONTRL RUNTYP=ENERGY COORD=UNIQUE UNITS=ANGS $END
 $BASIS  GBASIS=STO NGAUSS=6 $END
 $DATA
STO-6G/ Iodomethane single point energy
C1
I          53.0   0.2431501568   0.0001512736   0.0000933391
C           6.0  -1.8109787185  -0.0000758579  -0.0000319999
H           1.0  -2.2003871532   0.2273150958   0.9804672481
H           1.0  -2.2002679175  -0.9629461190  -0.2933593598
H           1.0  -2.2003620596   0.7353192567  -0.6872710700
 $END
