 $CONTRL RUNTYP=ENERGY COORD=UNIQUE UNITS=ANGS $END
 $BASIS  GBASIS=N21 NGAUSS=3 NDFUNC=1 $END
 $DATA
3-21g(d) / Iodomethane single point energy
C1
I          53.0   0.3061173620   0.0001353896   0.0000861557
C           6.0  -1.8735193700  -0.0000690343  -0.0000131229
H           1.0  -2.2005433799   0.2316628203   0.9991454491
H           1.0  -2.2003767307  -0.9812741146  -0.2989663895
H           1.0  -2.2005235734   0.7493085882  -0.7003539349
 $END
