 $CONTRL RUNTYP=SADPOINT ICHARG=-1 COORD=ZMT $END
 $BASIS GBASIS=STO NGAUSS=6 $END
 $STATPT HESS=CALC $END
 $HESS HESS=READ $END
 $DATA 
STO-6G/ Transition point location
C1
CL
C        1   2.0924838
H        2   1.0984837    1    96.4848064
H        2   1.0914198    3   117.6331765    1  -100.5036440 
H        2   1.1038517    3   120.4902123    4  -161.4978174 
I        2   2.4621277    1   176.6353279    4   153.7361733 
 $END

