 $CONTRL RUNTYP=ENERGY ICHARG=-1 COORD=UNIQUE $END
 $BASIS  GBASIS=N21 NGAUSS=3 NDFUNC=1 $END
 $DATA
3-21g(d) / Iodochloromethane single point energy
C1
CL         17.0   3.1780173953   0.0323625705  -0.0112318431
C           6.0   1.2491823238   0.0339221551  -0.0189224105
H           1.0   1.2924950010   0.4911199491   0.9373224797
H           1.0   1.2984704925   0.6333001494  -0.8927560076
H           1.0   1.2951078784  -1.0227382878  -0.1008541314
I          53.0  -1.0583590480   0.0350231702  -0.0276551979
 $END
