 $CONTRL RUNTYP=ENERGY ICHARG=-1 COORD=UNIQUE $END
 $BASIS  GBASIS=STO NGAUSS=6 $END
 $DATA
STO-6G/ Iodochloromethane single point energy
C1
CL         17.0   3.4714692869   0.0332177424  -0.0113326245
C           6.0   1.2925165308   0.0338155196  -0.0188481816
H           1.0   1.2925972447   0.4961671399   0.9490587227
H           1.0   1.2990078274   0.6408618757  -0.9031872654
H           1.0   1.2957886931  -1.0355884504  -0.1023813851
I          53.0  -1.2064655398   0.0345158793  -0.0274063769
 $END
