 $CONTRL RUNTYP=OPTIMIZE COORD=ZMT UNITS=ANGS $END
 $BASIS  GBASIS=AM1 $END
 $DATA
AM1/Fullerene(C60) Optimization
Cnh 2

X70
X71   X70   3.50
X72   X70   3.50    X71    180.00
X73   X70   3.50    X71     63.4349488229221   X72   0.00
X77   X70   3.50    X71     63.4349488229221   X73  72.00
X76   X70   3.50    X71     63.4349488229221   X73  144.00
X75   X70   3.50    X71     63.4349488229221   X73 -144.00
X74   X70   3.50    X71     63.4349488229221   X73  -72.00
X78   X70   3.50    X71    116.565051177078    X73   36.00
X79   X70   3.50    X71    116.565051177078    X73  108.00
X80   X70   3.50    X71    116.565051177078    X73  180.00
X82   X70   3.50    X71    116.565051177078    X73 -108.00
X81   X70   3.50    X71    116.565051177078    X73  -36.00
C2    X71   1.236   X70     80.00            X74    0.00
C9    X71   1.236   X70     80.00            X74   72.00
C18   X71   1.236   X70     80.00            X74  144.00
C13   X71   1.236   X70     80.00            X74  -72.00
C55   X71   1.236   X70     80.00            X74 -144.00
C10   X72   1.236   X70     80.00            X79    0.00
C34   X72   1.236   X70     80.00            X79   72.00
C44   X72   1.236   X70     80.00            X79  144.00
C6    X72   1.236   X70     80.00            X79  -72.00
C29   X72   1.236   X70     80.00            X79 -144.00
C3    X75   1.236   X70     80.00            X71    0.00
C7    X75   1.236   X70     80.00            X71   72.00
C22   X75   1.236   X70     80.00            X71  144.00
C17   X75   1.236   X70     80.00            X71  -72.00
C37   X75   1.236   X70     80.00            X71 -144.00
C20   X76   1.236   X70     80.00            X71    0.00
C19   X76   1.236   X70     80.00            X71   72.00
C38   X76   1.236   X70     80.00            X71  144.00
C57   X76   1.236   X70     80.00            X71  -72.00
C59   X76   1.236   X70     80.00            X71 -144.00
C56   X77   1.236   X70     80.00            X71    0.00
C58   X77   1.236   X70     80.00            X71   72.00
C28   X77   1.236   X70     80.00            X71  144.00
C54   X77   1.236   X70     80.00            X71  -72.00
C27   X77   1.236   X70     80.00            X71 -144.00
C15   X73   1.236   X70     80.00            X71    0.00
C53   X73   1.236   X70     80.00            X71   72.00
C51   X73   1.236   X70     80.00            X71  144.00
C16   X73   1.236   X70     80.00            X71  -72.00
C49   X73   1.236   X70     80.00            X71 -144.00
C8    X74   1.236   X70     80.00            X71    0.00
C14   X74   1.236   X70     80.00            X71   72.00
C47   X74   1.236   X70     80.00            X71  144.00
C1    X74   1.236   X70     80.00            X71  -72.00
C21   X74   1.236   X70     80.00            X71 -144.00
C12   X78   1.236   X70     80.00            X72    0.00
C30   X78   1.236   X70     80.00            X72   72.00
C52   X78   1.236   X70     80.00            X72  144.00
C5    X78   1.236   X70     80.00            X72  -72.00
C25   X78   1.236   X70     80.00            X72 -144.00
C4    X79   1.236   X70     80.00            X72    0.00
C11   X79   1.236   X70     80.00            X72   72.00
C26   X79   1.236   X70     80.00            X72  144.00
C33   X79   1.236   X70     80.00            X72  -72.00
C60   X79   1.236   X70     80.00            X72 -144.00
C36   X80   1.236   X70     80.00            X72    0.00
C35   X80   1.236   X70     80.00            X72   72.00
C40   X80   1.236   X70     80.00            X72  144.00
C42   X80   1.236   X70     80.00            X72  -72.00
C39   X80   1.236   X70     80.00            X72 -144.00
C43   X82   1.236   X70     80.00            X72    0.00
C41   X82   1.236   X70     80.00            X72   72.00
C24   X82   1.236   X70     80.00            X72  144.00
C45   X82   1.236   X70     80.00            X72  -72.00
C23   X82   1.236   X70     80.00            X72 -144.00
C31   X81   1.236   X70     80.00            X72    0.00
C46   X81   1.236   X70     80.00            X72   72.00
C48   X81   1.236   X70     80.00            X72  144.00
C32   X81   1.236   X70     80.00            X72  -72.00
C50   X81   1.236   X70     80.00            X72 -144.00
 $END
