 $CONTRL RUNTYP=ENERGY ICHARG=-1 COORD=UNIQUE $END
 $BASIS GBASIS=N21 NGAUSS=3 NDFUNC=1 $END
 $DATA 
3-21g (d)/ Chlorine single point energy
C1
CL  17.0  -0.0433700000  -0.0799600000   0.0000000000
 $END
