 $CONTRL RUNTYP=HESSIAN COORD=ZMT UNITS=ANGS $END
 $BASIS  GBASIS=N31 NGAUSS=6 NDFUNC=1 $END
 $DATA
6-31g(d)/ Benzene normal modes
Dnh 6

C
C  1   1.3861734
C  2   1.3861734  1   120.0000000
C  3   1.3861734  2   120.0000000  1     0.0000000 
C  4   1.3861734  3   120.0000000  2     0.0000000 
C  1   1.3861734  2   120.0000000  3     0.0000000 
H  1   1.0756030  6   120.0000000  5   180.0000000 
H  2   1.0756030  1   120.0000000  6   180.0000000 
H  3   1.0756030  2   120.0000000  1   180.0000000 
H  4   1.0756030  3   120.0000000  2   180.0000000 
H  5   1.0756030  4   120.0000000  3   180.0000000 
H  6   1.0756030  1   120.0000000  2   180.0000000 
 $END
