 $CONTRL RUNTYP=OPTIMIZE COORD=ZMT UNITS=ANGS $END
 $BASIS  GBASIS=N31 NGAUSS=6 NDFUNC=1 $END
 $DATA
6-31g(d)/ Water optimization
CnV 2

O
H    1    rOH
H    1    rOH   2    aHOH

rOH=0.96                     
aHOH=109.5         
 $END

