 $CONTRL RUNTYP=HESSIAN COORD=ZMT UNITS=ANGS $END
 $BASIS GBASIS=N31 NGAUSS=6 NDFUNC=1 $END
 $DATA
6-31g(d)/ Ammonia Normal modes
Cnv 3

N
H 1 1.0025232
H 1 1.0025232 2 107.1803051
H 1 1.0025232 2 107.1803051 3 -114.7843381
 $END
