 $CONTRL RUNTYP=OPTIMIZE COORD=ZMT UNITS=ANGS $END
 $BASIS GBASIS=N31 NGAUSS=6 NDFUNC=1 $END
 $DATA
6-31g(d)/ Ammonia Optimization
Cnv 3

N
H 1 1.1
H 1 1.1 2 109.4712
H 1 1.1 2 109.4712 3 -119.9999
 $END
