 $CONTRL RUNTYP=HESSIAN COORD=CART UNITS=ANGS $END
 $BASIS  GBASIS=AM1 $END
 $DATA
AM1/Fullerene(C60) normal modes
Cnh 2

C   6.0  -0.3848078332  -3.3317712606   1.1843167282
C   6.0   0.3848078332   3.3317712606  -1.1843167282
C   6.0  -0.3848078332  -3.3317712606  -1.1843167282
C   6.0   0.3848078332   3.3317712606   1.1843167282
C   6.0   1.0074399815  -3.3317712560   0.7319479922
C   6.0  -1.0074399815   3.3317712560  -0.7319479922
C   6.0   1.0074399815  -3.3317712560  -0.7319479922
C   6.0  -1.0074399815   3.3317712560   0.7319479922
C   6.0  -1.2452643023  -3.3317712635   0.0000000000
C   6.0   1.2452643023   3.3317712635   0.0000000000
C   6.0   1.9603514854  -2.6038116677   1.4242787241
C   6.0  -1.9603514854   2.6038116677  -1.4242787241
C   6.0   1.9603514854  -2.6038116677  -1.4242787241
C   6.0  -1.9603514854   2.6038116677   1.4242787241
C   6.0   1.5755436435  -1.8341959917   2.6085954420
C   6.0  -1.5755436435   1.8341959917  -2.6085954420
C   6.0   1.5755436435  -1.8341959917  -2.6085954420
C   6.0  -1.5755436435   1.8341959917   2.6085954420
C   6.0   2.3451593107  -0.5889316929   2.6085954493
C   6.0  -2.3451593107   0.5889316929  -2.6085954493
C   6.0   2.3451593107  -0.5889316929  -2.6085954493
C   6.0  -2.3451593107   0.5889316929   2.6085954493
C   6.0   2.9677914535  -1.8341959916   0.6923307263
C   6.0  -2.9677914535   1.8341959916  -0.6923307263
C   6.0   2.9677914535  -1.8341959916  -0.6923307263
C   6.0  -2.9677914535   1.8341959916   0.6923307263
C   6.0   3.2056157812  -0.5889316932   1.4242787197
C   6.0  -3.2056157812   0.5889316932  -1.4242787197
C   6.0   3.2056157812  -0.5889316932  -1.4242787197
C   6.0  -3.2056157812   0.5889316932   1.4242787197
C   6.0  -0.7487876355  -2.6038116601  -2.3045313782
C   6.0   0.7487876355   2.6038116601   2.3045313782
C   6.0  -0.7487876355  -2.6038116601   2.3045313782
C   6.0   0.7487876355   2.6038116601  -2.3045313782
C   6.0   0.2586523475  -1.8341959966  -3.0364793676
C   6.0  -0.2586523475   1.8341959966   3.0364793676
C   6.0   0.2586523475  -1.8341959966   3.0364793676
C   6.0  -0.2586523475   1.8341959966  -3.0364793676
C   6.0  -0.3639798017  -0.5889316923  -3.4888480984
C   6.0   0.3639798017   0.5889316923   3.4888480984
C   6.0  -0.3639798017  -0.5889316923   3.4888480984
C   6.0   0.3639798017   0.5889316923  -3.4888480984
C   6.0  -1.9940519370  -1.8341959957  -2.3045313757
C   6.0   1.9940519370   1.8341959957   2.3045313757
C   6.0  -1.9940519370  -1.8341959957   2.3045313757
C   6.0   1.9940519370   1.8341959957  -2.3045313757
C   6.0  -1.7562276182  -0.5889316927  -3.0364793649
C   6.0   1.7562276182   0.5889316927   3.0364793649
C   6.0  -1.7562276182  -0.5889316927   3.0364793649
C   6.0   1.7562276182   0.5889316927  -3.0364793649
C   6.0  -2.4231276848  -2.6038116557   0.0000000000
C   6.0   2.4231276848   2.6038116557   0.0000000000
C   6.0  -2.8079355217  -1.8341959990  -1.1843167308
C   6.0   2.8079355217   1.8341959990   1.1843167308
C   6.0  -2.8079355217  -1.8341959990   1.1843167308
C   6.0   2.8079355217   1.8341959990  -1.1843167308
C   6.0  -3.4305676600  -0.5889316919  -0.7319479922
C   6.0   3.4305676600   0.5889316919   0.7319479922
C   6.0  -3.4305676600  -0.5889316919   0.7319479922
C   6.0   3.4305676600   0.5889316919  -0.7319479922
 $END
