 $CONTRL RUNTYP=OPTIMIZE COORD=ZMT UNITS=ANGS $END
 $BASIS  GBASIS=N31 NGAUSS=6 NDFUNC=1 $END
 $DATA
6-31g(d)/Formaldehyde optimization
Cnv 2

O
C 1 1.208
H 2 1.116 1 121.8
H 2 1.116 1 121.8 3 180.0
 $END
