 $CONTRL RUNTYP=ENERGY ICHARG=-1 COORD=UNIQUE $END
 $BASIS GBASIS=N21 NGAUSS=3 NDFUNC=1 $END
 $DATA 
3-21g(d) / Iodine single point energy
C1
I  53.0  -0.1517900000  -0.2642800000   0.0000000000
 $END
