 $CONTRL RUNTYP=HESSIAN COORD=ZMT UNITS=ANGS $END
 $BASIS  GBASIS=N31 NGAUSS=6 NDFUNC=1 $END
 $DATA
6-31g(d)/ Methane normal modes
CnV 3

C   
H  1   1.0836691
H  1   1.0836628  2   109.4699337
H  1   1.0836628  2   109.4699337  3   120.0000000
H  1   1.0836628  2   109.4699337  3  -120.0000000
 $END

